c CNF file corresponding to a (partial) station packing problem.
p cnf 7354 138
1 2 3 4 5 6 7 8 9 10 11 12 13 14 0
-1 -2 0
-1 -3 0
-1 -4 0
-1 -5 0
-1 -6 0
-1 -7 0
-1 -8 0
-1 -9 0
-1 -10 0
-1 -11 0
-1 -12 0
-1 -13 0
-1 -14 0
-2 -3 0
-2 -4 0
-2 -5 0
-2 -6 0
-2 -7 0
-2 -8 0
-2 -9 0
-2 -10 0
-2 -11 0
-2 -12 0
-2 -13 0
-2 -14 0
-3 -4 0
-3 -5 0
-3 -6 0
-3 -7 0
-3 -8 0
-3 -9 0
-3 -10 0
-3 -11 0
-3 -12 0
-3 -13 0
-3 -14 0
-4 -5 0
-4 -6 0
-4 -7 0
-4 -8 0
-4 -9 0
-4 -10 0
-4 -11 0
-4 -12 0
-4 -13 0
-4 -14 0
-5 -6 0
-5 -7 0
-5 -8 0
-5 -9 0
-5 -10 0
-5 -11 0
-5 -12 0
-5 -13 0
-5 -14 0
-6 -7 0
-6 -8 0
-6 -9 0
-6 -10 0
-6 -11 0
-6 -12 0
-6 -13 0
-6 -14 0
-7 -8 0
-7 -9 0
-7 -10 0
-7 -11 0
-7 -12 0
-7 -13 0
-7 -14 0
-8 -9 0
-8 -10 0
-8 -11 0
-8 -12 0
-8 -13 0
-8 -14 0
-9 -10 0
-9 -11 0
-9 -12 0
-9 -13 0
-9 -14 0
-10 -11 0
-10 -12 0
-10 -13 0
-10 -14 0
-11 -12 0
-11 -13 0
-11 -14 0
-12 -13 0
-12 -14 0
-13 -14 0
7345 7346 7347 7348 7349 7350 7351 7352 7353 7354 0
-7345 -7346 0
-7345 -7347 0
-7345 -7348 0
-7345 -7349 0
-7345 -7350 0
-7345 -7351 0
-7345 -7352 0
-7345 -7353 0
-7345 -7354 0
-7346 -7347 0
-7346 -7348 0
-7346 -7349 0
-7346 -7350 0
-7346 -7351 0
-7346 -7352 0
-7346 -7353 0
-7346 -7354 0
-7347 -7348 0
-7347 -7349 0
-7347 -7350 0
-7347 -7351 0
-7347 -7352 0
-7347 -7353 0
-7347 -7354 0
-7348 -7349 0
-7348 -7350 0
-7348 -7351 0
-7348 -7352 0
-7348 -7353 0
-7348 -7354 0
-7349 -7350 0
-7349 -7351 0
-7349 -7352 0
-7349 -7353 0
-7349 -7354 0
-7350 -7351 0
-7350 -7352 0
-7350 -7353 0
-7350 -7354 0
-7351 -7352 0
-7351 -7353 0
-7351 -7354 0
-7352 -7353 0
-7352 -7354 0
-7353 -7354 0
